p cnf 12 25
12 -11 4 0
12 -9 4 0
-12 6 5 0
12 5 4 0
-11 -10 9 0
-11 6 1 0
11 6 1 0
10 9 4 0
10 8 -2 0
10 -7 4 0
-10 7 -2 0
10 3 -2 0
-10 -2 1 0
9 -7 -3 0
-9 -6 -3 0
-9 6 2 0
9 4 2 0
8 7 4 0
8 5 -4 0
8 -5 2 0
8 -2 1 0
-7 6 5 0
7 -6 4 0
-6 4 1 0
-6 2 -1 0
